100
128
60
42
30
9
33
10
3
47
18
13
3
50
11
10
35
1
24
6
58
10
29
12
21
17
48
44
57
27
39
26
64
50
30
64
10
43
24
8
36
6
51
12
9
20
48
56
44
28
26
25
11
24
56
42
25
53
15
37
47
25
18
13
64
16
13
16
28
26
42
50
22
15
32
24
22
25
26
15
40
40
28
37
23
52
63
27
18
47
50
35
27
50
33
26
28
41
30
44
53
12